(set-info :source |printed by MathSAT|)
(declare-fun param_k0 () Int)
(declare-fun call_Sofar.Sofar () Bool)
(declare-fun call_Age.flby () Int)
(declare-fun param_q () Bool)
(declare-fun _OK_ () Bool)
(declare-fun call_Sofar.flby () Bool)
(declare-fun call_Age.age_of_p () Int)
(declare-fun flby2 () Int)
(declare-fun env () Bool)
(declare-fun call_Age2.age_of_p () Int)
(declare-fun flby () Int)
(declare-fun m () Int)
(declare-fun param_m0 () Int)
(declare-fun call_Age2.flby () Int)
(declare-fun call_Age3.flby () Int)
(declare-fun k () Int)
(declare-fun call_Age3.age_of_p () Int)
(define-fun .def_222 () Bool (= call_Age3.flby call_Age3.age_of_p))
(define-fun .def_220 () Bool (= call_Sofar.flby call_Sofar.Sofar))
(define-fun .def_218 () Bool (= call_Age2.age_of_p call_Age2.flby))
(define-fun .def_216 () Bool (= call_Age.age_of_p call_Age.flby))
(define-fun .def_214 () Bool (= env call_Sofar.Sofar))
(define-fun .def_211 () Bool (= m flby2))
(define-fun .def_209 () Bool (= k flby))
(define-fun .def_203 () Int (* (- 1) call_Age3.age_of_p))
(define-fun .def_204 () Int (+ m .def_203))
(define-fun .def_205 () Int (+ k .def_204))
(define-fun .def_206 () Bool (<= 0 .def_205))
(define-fun .def_197 () Bool (not env))
(define-fun .def_207 () Bool (or .def_197 .def_206))
(define-fun .def_208 () Bool (= _OK_ .def_207))
(define-fun .def_210 () Bool (and .def_208 .def_209))
(define-fun .def_212 () Bool (and .def_210 .def_211))
(define-fun .def_215 () Bool (and .def_212 .def_214))
(define-fun .def_217 () Bool (and .def_215 .def_216))
(define-fun .def_219 () Bool (and .def_217 .def_218))
(define-fun .def_221 () Bool (and .def_219 .def_220))
(define-fun .def_223 () Bool (and .def_221 .def_222))
(define-fun .def_193 () Bool (= call_Age3.flby 0))
(define-fun .def_189 () Bool (= call_Age2.flby 0))
(define-fun .def_186 () Bool (= call_Age.flby 0))
(define-fun .def_183 () Bool (= param_m0 flby2))
(define-fun .def_180 () Bool (= param_k0 flby))
(define-fun .def_184 () Bool (and .def_180 .def_183))
(define-fun .def_187 () Bool (and .def_184 .def_186))
(define-fun .def_190 () Bool (and .def_187 .def_189))
(define-fun .def_174 () Bool (<= call_Age2.age_of_p m))
(define-fun .def_170 () Bool (<= 1 m))
(define-fun .def_168 () Bool (<= 1 k))
(define-fun .def_171 () Bool (and .def_168 .def_170))
(define-fun .def_165 () Bool (<= k call_Age.age_of_p))
(define-fun .def_166 () Bool (not .def_165))
(define-fun .def_167 () Bool (or param_q .def_166))
(define-fun .def_172 () Bool (and .def_167 .def_171))
(define-fun .def_175 () Bool (and .def_172 .def_174))
(define-fun .def_177 () Bool (= .def_175 call_Sofar.flby))
(define-fun .def_191 () Bool (and .def_177 .def_190))
(define-fun .def_194 () Bool (and .def_191 .def_193))
(define-fun .def_224 () Bool (and .def_194 .def_223))
(assert .def_224)
